* ENCODING=ISO-8859-1
NAME          CPLEX
ROWS
 N  obj1    
 G  c1      
 G  c2      
 G  c3      
 G  c4      
 G  c5      
 G  c6      
 G  c7      
 G  c8      
 G  c9      
 G  c10     
 G  c11     
 G  c12     
 G  c13     
 G  c14     
 G  c15     
 G  c16     
 G  c17     
 G  c18     
 G  c19     
 G  c20     
 G  c21     
 G  c22     
 G  c23     
 G  c24     
 G  c25     
 G  c26     
 G  c27     
 G  c28     
 G  c29     
 G  c30     
 G  c31     
 G  c32     
 G  c33     
 G  c34     
 G  c35     
 G  c36     
 G  c37     
 G  c38     
 G  c39     
 G  c40     
COLUMNS
    MARK0000  'MARKER'                 'INTORG'
    x1        obj1                            1
    x1        c8                            436
    x1        c15                           804
    x1        c23                           474
    x1        c38                           612
    x2        obj1                            1
    x2        c10                           147
    x2        c30                           850
    x2        c36                           816
    x2        c40                           108
    x3        obj1                            1
    x3        c1                            966
    x3        c5                            238
    x3        c23                           293
    x4        obj1                            1
    x4        c17                           161
    x4        c22                           467
    x4        c33                           520
    x4        c37                           924
    x5        obj1                            1
    x5        c7                            689
    x5        c16                           275
    x6        obj1                            1
    x6        c1                            257
    x6        c19                           122
    x6        c30                           834
    x7        obj1                            1
    x7        c4                            588
    x7        c6                            870
    x7        c21                           294
    x7        c24                           936
    x7        c27                           704
    x7        c33                           107
    x7        c38                           925
    x8        obj1                            1
    x8        c4                            431
    x8        c17                           486
    x8        c33                           481
    x8        c36                           483
    x9        obj1                            1
    x9        c13                           498
    x9        c26                           193
    x9        c36                           425
    x10       obj1                            1
    x10       c4                            792
    x10       c9                            354
    x10       c12                           545
    x10       c38                           640
    x10       c39                           107
    x11       obj1                            1
    x11       c2                            329
    x11       c23                           608
    x11       c25                           150
    x12       obj1                            1
    x12       c9                            270
    x12       c11                           358
    x12       c27                           648
    x12       c30                           276
    x12       c31                           338
    x13       obj1                            1
    x13       c3                            819
    x13       c23                           638
    x13       c32                           289
    x14       obj1                            1
    x14       c7                            272
    x14       c15                           476
    x14       c36                           949
    x15       obj1                            1
    x15       c6                            498
    x15       c7                            328
    x15       c10                           177
    x15       c21                           345
    x15       c26                           779
    x15       c39                           104
    x16       obj1                            1
    x16       c13                           791
    x16       c14                           651
    x16       c17                           166
    x16       c18                           402
    x16       c23                           581
    x17       obj1                            1
    x17       c20                           587
    x17       c33                           393
    x18       obj1                            1
    x18       c1                            945
    x18       c2                            445
    x18       c4                            887
    x18       c12                           658
    x18       c20                           357
    x18       c21                           879
    x19       obj1                            1
    x19       c30                           907
    x19       c38                           615
    x19       c39                           204
    x19       c40                           944
    x20       obj1                            1
    x20       c2                            210
    x20       c23                           530
    x21       obj1                            1
    x21       c22                           630
    x22       obj1                            1
    x22       c28                           556
    x22       c37                           236
    x23       obj1                            1
    x23       c2                            624
    x23       c13                           256
    x23       c20                           627
    x23       c25                           542
    x23       c26                           985
    x24       obj1                            1
    x24       c30                           787
    x24       c38                           904
    x25       obj1                            1
    x25       c7                            791
    x25       c8                            615
    x25       c17                           330
    x25       c27                           163
    x25       c39                           452
    x26       obj1                            1
    x26       c9                            964
    x26       c11                           240
    x26       c23                           389
    x26       c35                           748
    x27       obj1                            1
    x27       c21                           169
    x27       c37                           995
    x28       obj1                            1
    x28       c2                            116
    x28       c9                            518
    x28       c17                           758
    x28       c25                           964
    x28       c35                           414
    x29       obj1                            1
    x29       c3                            713
    x29       c13                           258
    x29       c29                           824
    x29       c37                           663
    x30       obj1                            1
    x30       c3                            821
    x30       c14                           716
    x30       c19                           303
    x30       c21                           920
    x30       c24                           546
    x31       obj1                            1
    x31       c8                            531
    x31       c22                           734
    x32       obj1                            1
    x32       c1                            828
    x32       c11                           439
    x32       c13                           268
    x32       c25                           309
    x33       obj1                            1
    x33       c6                            882
    x33       c9                            409
    x34       obj1                            1
    x34       c11                           987
    x34       c26                           489
    x34       c38                           352
    x35       obj1                            1
    x35       c27                           544
    x35       c36                           137
    x36       obj1                            1
    x36       c4                            846
    x36       c8                            858
    x36       c34                           580
    x37       obj1                            1
    x37       c4                            404
    x37       c8                            535
    x37       c29                           151
    x38       obj1                            1
    x38       c18                           142
    x38       c28                           318
    x38       c33                           884
    x39       obj1                            1
    x39       c7                            537
    x39       c18                           837
    x39       c30                           240
    x40       obj1                            1
    x40       c1                            610
    x40       c28                           738
    x40       c30                           760
    x40       c39                           427
    x41       obj1                            1
    x41       c22                           530
    x41       c25                           897
    x41       c31                           852
    x41       c32                           158
    x42       obj1                            1
    x42       c9                            407
    x42       c21                           103
    x42       c25                           832
    x42       c28                           579
    x42       c31                           310
    x43       obj1                            1
    x43       c4                            251
    x43       c25                           371
    x43       c33                           714
    x44       obj1                            1
    x44       c36                           365
    x45       obj1                            1
    x45       c10                           229
    x45       c31                           613
    x45       c40                           936
    x46       obj1                            1
    x46       c5                            433
    x46       c16                           951
    x46       c24                           447
    x46       c27                           972
    x47       obj1                            1
    x47       c12                           879
    x47       c21                           439
    x47       c24                           633
    x48       obj1                            1
    x48       c25                           142
    x49       obj1                            1
    x49       c1                            132
    x49       c14                           295
    x49       c23                           692
    x49       c28                           500
    x50       obj1                            1
    x50       c7                            124
    x50       c17                           262
    x50       c20                           217
    x50       c27                           405
    x50       c34                           771
    x50       c37                           687
    x51       obj1                            1
    x51       c4                            684
    x51       c14                           760
    x51       c15                           344
    x51       c16                           547
    x51       c19                           365
    x52       obj1                            1
    x52       c3                            730
    x52       c27                           813
    x52       c40                           998
    x53       obj1                            1
    x53       c10                           256
    x53       c20                           272
    x53       c29                           798
    x53       c30                           337
    x54       obj1                            1
    x54       c1                            879
    x54       c38                           241
    x55       obj1                            1
    x55       c12                           404
    x55       c13                           178
    x56       obj1                            1
    x56       c12                           680
    x56       c13                           382
    x56       c17                           147
    x56       c20                           719
    x56       c33                           428
    x57       obj1                            1
    x57       c18                           657
    x57       c27                           622
    x57       c35                           378
    x58       obj1                            1
    x58       c3                            596
    x59       obj1                            1
    x59       c2                            408
    x59       c31                           432
    x59       c35                           734
    x60       obj1                            1
    x60       c4                            725
    x60       c8                            996
    x60       c17                           413
    x60       c19                           360
    x60       c28                           173
    x61       obj1                            1
    x61       c20                           679
    x61       c23                           695
    x61       c33                           426
    x62       obj1                            1
    x62       c3                            224
    x62       c9                            279
    x62       c12                           641
    x62       c14                           219
    x63       obj1                            1
    x63       c3                            392
    x63       c9                            356
    x63       c22                           827
    x63       c23                           315
    x63       c24                           975
    x63       c30                           952
    x63       c33                           340
    x63       c34                           989
    x64       obj1                            1
    x64       c6                            251
    x64       c12                           573
    x64       c15                           956
    x64       c21                           198
    x64       c34                           279
    x64       c38                           563
    x65       obj1                            1
    x65       c13                           447
    x65       c25                           128
    x65       c28                           296
    x65       c37                           577
    x66       obj1                            1
    x66       c27                           725
    x67       obj1                            1
    x67       c2                            126
    x67       c5                            440
    x67       c7                            355
    x67       c9                            947
    x67       c25                           633
    x67       c33                           121
    x68       obj1                            1
    x68       c4                            325
    x68       c17                           309
    x68       c34                           167
    x69       obj1                            1
    x69       c13                           983
    x69       c16                           108
    x69       c21                           100
    x69       c25                           829
    x69       c27                           750
    x69       c28                           820
    x69       c30                           472
    x69       c32                           559
    x70       obj1                            1
    x70       c9                            563
    x70       c11                           720
    x70       c21                           413
    x70       c27                           560
    x70       c33                           997
    x70       c40                           150
    x71       obj1                            1
    x71       c10                           484
    x71       c20                           547
    x71       c24                           912
    x71       c28                           188
    x71       c34                           485
    x72       obj1                            1
    x72       c17                           987
    x73       obj1                            1
    x73       c7                            125
    x73       c17                           198
    x73       c22                           876
    x73       c27                           702
    x73       c28                           528
    x73       c40                           861
    x74       obj1                            1
    x74       c15                           547
    x74       c29                           323
    x75       obj1                            1
    x75       c3                            722
    x76       obj1                            1
    x76       c7                            819
    x76       c9                            714
    x76       c10                           259
    x76       c11                           608
    x76       c13                           590
    x76       c34                           792
    x76       c36                           602
    x77       obj1                            1
    x77       c9                            599
    x77       c22                           365
    x77       c32                           866
    x78       obj1                            1
    x78       c4                            710
    x78       c5                            841
    x78       c36                           802
    x78       c37                           481
    x79       obj1                            1
    x79       c3                            618
    x79       c14                           350
    x79       c17                           507
    x79       c25                           549
    x79       c35                           111
    x79       c36                           302
    x79       c37                           549
    x80       obj1                            1
    x80       c2                            850
    x80       c18                           733
    MARK0001  'MARKER'                 'INTEND'
RHS
    rhs       c1                           2309
    rhs       c2                           1554
    rhs       c3                           2818
    rhs       c4                           3322
    rhs       c5                            976
    rhs       c6                           1251
    rhs       c7                           2020
    rhs       c8                           1986
    rhs       c9                           3190
    rhs       c10                           776
    rhs       c11                          1676
    rhs       c12                          2190
    rhs       c13                          2326
    rhs       c14                          1496
    rhs       c15                          1564
    rhs       c16                           941
    rhs       c17                          2362
    rhs       c18                          1386
    rhs       c19                           575
    rhs       c20                          2003
    rhs       c21                          1930
    rhs       c22                          2215
    rhs       c23                          2608
    rhs       c24                          2225
    rhs       c25                          3173
    rhs       c26                          1223
    rhs       c27                          3804
    rhs       c28                          2348
    rhs       c29                          1048
    rhs       c30                          3208
    rhs       c31                          1273
    rhs       c32                           936
    rhs       c33                          2706
    rhs       c34                          2032
    rhs       c35                          1193
    rhs       c36                          2441
    rhs       c37                          2556
    rhs       c38                          2426
    rhs       c39                           647
    rhs       c40                          1999
BOUNDS
 LI bnd       x1        0
 LI bnd       x2        0
 LI bnd       x3        0
 LI bnd       x4        0
 LI bnd       x5        0
 LI bnd       x6        0
 LI bnd       x7        0
 LI bnd       x8        0
 LI bnd       x9        0
 LI bnd       x10       0
 LI bnd       x11       0
 LI bnd       x12       0
 LI bnd       x13       0
 LI bnd       x14       0
 LI bnd       x15       0
 LI bnd       x16       0
 LI bnd       x17       0
 LI bnd       x18       0
 LI bnd       x19       0
 LI bnd       x20       0
 LI bnd       x21       0
 LI bnd       x22       0
 LI bnd       x23       0
 LI bnd       x24       0
 LI bnd       x25       0
 LI bnd       x26       0
 LI bnd       x27       0
 LI bnd       x28       0
 LI bnd       x29       0
 LI bnd       x30       0
 LI bnd       x31       0
 LI bnd       x32       0
 LI bnd       x33       0
 LI bnd       x34       0
 LI bnd       x35       0
 LI bnd       x36       0
 LI bnd       x37       0
 LI bnd       x38       0
 LI bnd       x39       0
 LI bnd       x40       0
 LI bnd       x41       0
 LI bnd       x42       0
 LI bnd       x43       0
 LI bnd       x44       0
 LI bnd       x45       0
 LI bnd       x46       0
 LI bnd       x47       0
 LI bnd       x48       0
 LI bnd       x49       0
 LI bnd       x50       0
 LI bnd       x51       0
 LI bnd       x52       0
 LI bnd       x53       0
 LI bnd       x54       0
 LI bnd       x55       0
 LI bnd       x56       0
 LI bnd       x57       0
 LI bnd       x58       0
 LI bnd       x59       0
 LI bnd       x60       0
 LI bnd       x61       0
 LI bnd       x62       0
 LI bnd       x63       0
 LI bnd       x64       0
 LI bnd       x65       0
 LI bnd       x66       0
 LI bnd       x67       0
 LI bnd       x68       0
 LI bnd       x69       0
 LI bnd       x70       0
 LI bnd       x71       0
 LI bnd       x72       0
 LI bnd       x73       0
 LI bnd       x74       0
 LI bnd       x75       0
 LI bnd       x76       0
 LI bnd       x77       0
 LI bnd       x78       0
 LI bnd       x79       0
 LI bnd       x80       0
ENDATA
